n = 21;
k = 4;
roles = [
{g, f},
{d, g},
{g, m},
{d, m},
{m, f},
{f, m},
{f, d},
{f, g},
{f, g},
{f, m},
{d, g},
{g, m},
{f, g},
{g, d},
{m, d},
{f, g},
{d, f},
{d, m},
{f, m},
{d, m},
{f, m}
];
num_pairs = 2;
player1 = [1, 17];
player2 = [6, 18];
